;; sequence(s): A8767
;; terms: 0 0 0 0 0 0 0 1 2 2 2 2 2 2 4 6 6 6 6 6
;; small program: loop2(loop(x + y, y div (1 + (2 + (2 + 2))), x), y - 1, 2, 0, x)
;; fast program: (1 + ((x - 1) div (1 + (2 + (2 + 2))))) * (x div (1 + (2 + (2 + 2))))
(set-logic UFNIA)
(define-fun divf ((a Int) (b Int)) Int (ite (< 0 b) (div a b) (div (- a) (- b))))
(declare-fun f1 (Int Int) Int)
(declare-fun g1 (Int Int) Int)
(declare-fun h1 (Int) Int)
(declare-fun u1 (Int Int) Int)
(declare-fun v1 (Int Int) Int)
(declare-fun f0 (Int Int) Int)
(declare-fun g0 (Int Int) Int)
(declare-fun h0 () Int)
(declare-fun i0 () Int)
(declare-fun j0 (Int) Int)
(declare-fun u0 (Int Int Int) Int)
(declare-fun v0 (Int Int Int) Int)
(declare-fun w0 (Int) Int)
(declare-fun small (Int) Int)
(declare-fun fast (Int) Int)
(assert (forall ((x Int) (y Int)) (= (f1 x y) (+ x y))))
(assert (forall ((x Int) (y Int)) (= (g1 x y) (divf y (+ 1 (+ 2 (+ 2 2)))))))
(assert (forall ((x Int)) (= (h1 x) x)))
(assert (forall ((x Int) (y Int)) (= (u1 x y) (ite (<= x 0) y (f1 (u1 (- x 1) y) x)))))
(assert (forall ((x Int) (y Int)) (= (v1 x y) (u1 (g1 x y) (h1 x)))))
(assert (forall ((x Int) (y Int)) (= (f0 x y) (v1 x y))))
(assert (forall ((x Int) (y Int)) (= (g0 x y) (- y 1))))
(assert (= h0 2))
(assert (= i0 0))
(assert (forall ((x Int)) (= (j0 x) x)))
(assert (forall ((x Int) (y Int) (z Int)) (= (u0 x y z) (ite (<= x 0) y (f0 (u0 (- x 1) y z) (v0 (- x 1) y z))))))
(assert (forall ((x Int) (y Int) (z Int)) (= (v0 x y z) (ite (<= x 0) z (g0 (u0 (- x 1) y z) (v0 (- x 1) y z))))))
(assert (forall ((x Int)) (= (w0 x) (u0 h0 i0 (j0 x)))))
(assert (forall ((x Int)) (= (small x) (w0 x))))
(assert (forall ((x Int)) (= (fast x) (* (+ 1 (divf (- x 1) (+ 1 (+ 2 (+ 2 2))))) (divf x (+ 1 (+ 2 (+ 2 2))))))))
(assert (exists ((c Int)) (and (>= c 0) (not (= (small c) (fast c))))))
(check-sat)
